p cnf 124 1360
-15 -1 0
-23 -1 0
-39 -1 0
-43 -1 0
-55 -1 0
-59 -1 0
-66 -1 0
-70 -1 0
-82 -1 0
-86 -1 0
-102 -1 0
-110 -1 0
-23 -2 0
-40 -2 0
-43 -2 0
-60 -2 0
-65 -2 0
-82 -2 0
-85 -2 0
-102 -2 0
-21 -3 0
-22 -3 0
-23 -3 0
-24 -3 0
-25 -3 0
-41 -3 0
-42 -3 0
-43 -3 0
-44 -3 0
-45 -3 0
-61 -3 0
-62 -3 0
-63 -3 0
-64 -3 0
-80 -3 0
-81 -3 0
-82 -3 0
-83 -3 0
-84 -3 0
-100 -3 0
-101 -3 0
-102 -3 0
-103 -3 0
-104 -3 0
-23 -4 0
-36 -4 0
-43 -4 0
-56 -4 0
-69 -4 0
-82 -4 0
-89 -4 0
-102 -4 0
-11 -5 0
-23 -5 0
-37 -5 0
-43 -5 0
-51 -5 0
-57 -5 0
-68 -5 0
-74 -5 0
-82 -5 0
-88 -5 0
-102 -5 0
-114 -5 0
-15 -6 0
-39 -6 0
-48 -6 0
-54 -6 0
-71 -6 0
-77 -6 0
-86 -6 0
-110 -6 0
-19 -7 0
-40 -7 0
-48 -7 0
-55 -7 0
-59 -7 0
-66 -7 0
-70 -7 0
-77 -7 0
-85 -7 0
-106 -7 0
-46 -8 0
-47 -8 0
-48 -8 0
-49 -8 0
-50 -8 0
-61 -8 0
-62 -8 0
-63 -8 0
-64 -8 0
-75 -8 0
-76 -8 0
-77 -8 0
-78 -8 0
-79 -8 0
-17 -9 0
-36 -9 0
-48 -9 0
-51 -9 0
-57 -9 0
-68 -9 0
-74 -9 0
-77 -9 0
-89 -9 0
-108 -9 0
-11 -10 0
-37 -10 0
-48 -10 0
-52 -10 0
-73 -10 0
-77 -10 0
-88 -10 0
-114 -10 0
-15 -11 0
-20 -11 0
-25 -11 0
-29 -11 0
-34 -11 0
-39 -11 0
-44 -11 0
-49 -11 0
-53 -11 0
-58 -11 0
-67 -11 0
-72 -11 0
-76 -11 0
-81 -11 0
-86 -11 0
-91 -11 0
-96 -11 0
-100 -11 0
-105 -11 0
-110 -11 0
-115 -11 0
-120 -11 0
-30 -12 0
-35 -12 0
-40 -12 0
-45 -12 0
-50 -12 0
-53 -12 0
-58 -12 0
-67 -12 0
-72 -12 0
-75 -12 0
-80 -12 0
-85 -12 0
-90 -12 0
-95 -12 0
-51 -13 0
-52 -13 0
-53 -13 0
-54 -13 0
-55 -13 0
-56 -13 0
-57 -13 0
-58 -13 0
-59 -13 0
-60 -13 0
-61 -13 0
-62 -13 0
-63 -13 0
-64 -13 0
-65 -13 0
-66 -13 0
-67 -13 0
-68 -13 0
-69 -13 0
-70 -13 0
-71 -13 0
-72 -13 0
-73 -13 0
-74 -13 0
-26 -14 0
-31 -14 0
-36 -14 0
-41 -14 0
-46 -14 0
-53 -14 0
-58 -14 0
-67 -14 0
-72 -14 0
-79 -14 0
-84 -14 0
-89 -14 0
-94 -14 0
-99 -14 0
-16 -15 0
-21 -15 0
-27 -15 0
-32 -15 0
-37 -15 0
-42 -15 0
-47 -15 0
-53 -15 0
-58 -15 0
-67 -15 0
-72 -15 0
-78 -15 0
-83 -15 0
-88 -15 0
-93 -15 0
-98 -15 0
-104 -15 0
-109 -15 0
-114 -15 0
-119 -15 0
-124 -15 0
-28 -16 0
-39 -16 0
-52 -16 0
-73 -16 0
-86 -16 0
-97 -16 0
-110 -16 0
-28 -17 0
-40 -17 0
-51 -17 0
-57 -17 0
-68 -17 0
-74 -17 0
-85 -17 0
-97 -17 0
-116 -17 0
-26 -18 0
-27 -18 0
-28 -18 0
-29 -18 0
-30 -18 0
-61 -18 0
-62 -18 0
-63 -18 0
-64 -18 0
-95 -18 0
-96 -18 0
-97 -18 0
-98 -18 0
-99 -18 0
-28 -19 0
-36 -19 0
-55 -19 0
-59 -19 0
-66 -19 0
-70 -19 0
-89 -19 0
-97 -19 0
-118 -19 0
-28 -20 0
-37 -20 0
-54 -20 0
-71 -20 0
-88 -20 0
-97 -20 0
-114 -20 0
-33 -21 0
-39 -21 0
-51 -21 0
-57 -21 0
-68 -21 0
-74 -21 0
-86 -21 0
-92 -21 0
-110 -21 0
-122 -21 0
-33 -22 0
-40 -22 0
-56 -22 0
-69 -22 0
-85 -22 0
-92 -22 0
-122 -22 0
-31 -23 0
-32 -23 0
-33 -23 0
-34 -23 0
-35 -23 0
-61 -23 0
-62 -23 0
-63 -23 0
-64 -23 0
-90 -23 0
-91 -23 0
-92 -23 0
-93 -23 0
-94 -23 0
-120 -23 0
-121 -23 0
-122 -23 0
-123 -23 0
-124 -23 0
-33 -24 0
-36 -24 0
-60 -24 0
-65 -24 0
-89 -24 0
-92 -24 0
-122 -24 0
-33 -25 0
-37 -25 0
-55 -25 0
-59 -25 0
-66 -25 0
-70 -25 0
-88 -25 0
-92 -25 0
-114 -25 0
-122 -25 0
-55 -26 0
-59 -26 0
-66 -26 0
-70 -26 0
-107 -26 0
-111 -26 0
-39 -27 0
-47 -27 0
-60 -27 0
-65 -27 0
-78 -27 0
-86 -27 0
-107 -27 0
-110 -27 0
-61 -28 0
-62 -28 0
-63 -28 0
-64 -28 0
-105 -28 0
-106 -28 0
-107 -28 0
-108 -28 0
-109 -28 0
-37 -29 0
-49 -29 0
-56 -29 0
-69 -29 0
-76 -29 0
-88 -29 0
-107 -29 0
-114 -29 0
-51 -30 0
-57 -30 0
-68 -30 0
-74 -30 0
-107 -30 0
-113 -30 0
-35 -31 0
-43 -31 0
-54 -31 0
-71 -31 0
-82 -31 0
-90 -31 0
-102 -31 0
-111 -31 0
-39 -32 0
-43 -32 0
-55 -32 0
-59 -32 0
-66 -32 0
-70 -32 0
-82 -32 0
-86 -32 0
-102 -32 0
-110 -32 0
-41 -33 0
-42 -33 0
-43 -33 0
-44 -33 0
-45 -33 0
-61 -33 0
-62 -33 0
-63 -33 0
-64 -33 0
-80 -33 0
-81 -33 0
-82 -33 0
-83 -33 0
-84 -33 0
-100 -33 0
-101 -33 0
-102 -33 0
-103 -33 0
-104 -33 0
-37 -34 0
-43 -34 0
-51 -34 0
-57 -34 0
-68 -34 0
-74 -34 0
-82 -34 0
-88 -34 0
-102 -34 0
-114 -34 0
-43 -35 0
-52 -35 0
-73 -35 0
-82 -35 0
-94 -35 0
-102 -35 0
-113 -35 0
-53 -36 0
-58 -36 0
-67 -36 0
-72 -36 0
-101 -36 0
-106 -36 0
-111 -36 0
-116 -36 0
-121 -36 0
-39 -37 0
-44 -37 0
-49 -37 0
-53 -37 0
-58 -37 0
-67 -37 0
-72 -37 0
-76 -37 0
-81 -37 0
-86 -37 0
-91 -37 0
-96 -37 0
-100 -37 0
-105 -37 0
-110 -37 0
-115 -37 0
-120 -37 0
-51 -38 0
-52 -38 0
-53 -38 0
-54 -38 0
-55 -38 0
-56 -38 0
-57 -38 0
-58 -38 0
-59 -38 0
-60 -38 0
-61 -38 0
-62 -38 0
-63 -38 0
-64 -38 0
-65 -38 0
-66 -38 0
-67 -38 0
-68 -38 0
-69 -38 0
-70 -38 0
-71 -38 0
-72 -38 0
-73 -38 0
-74 -38 0
-42 -39 0
-47 -39 0
-53 -39 0
-58 -39 0
-67 -39 0
-72 -39 0
-78 -39 0
-83 -39 0
-88 -39 0
-93 -39 0
-98 -39 0
-104 -39 0
-109 -39 0
-114 -39 0
-119 -39 0
-124 -39 0
-53 -40 0
-58 -40 0
-67 -40 0
-72 -40 0
-103 -40 0
-108 -40 0
-113 -40 0
-118 -40 0
-123 -40 0
-45 -41 0
-52 -41 0
-73 -41 0
-80 -41 0
-92 -41 0
-111 -41 0
-122 -41 0
-51 -42 0
-57 -42 0
-68 -42 0
-74 -42 0
-86 -42 0
-92 -42 0
-110 -42 0
-122 -42 0
-61 -43 0
-62 -43 0
-63 -43 0
-64 -43 0
-90 -43 0
-91 -43 0
-92 -43 0
-93 -43 0
-94 -43 0
-120 -43 0
-121 -43 0
-122 -43 0
-123 -43 0
-124 -43 0
-55 -44 0
-59 -44 0
-66 -44 0
-70 -44 0
-88 -44 0
-92 -44 0
-114 -44 0
-122 -44 0
-54 -45 0
-71 -45 0
-84 -45 0
-92 -45 0
-113 -45 0
-122 -45 0
-51 -46 0
-57 -46 0
-68 -46 0
-74 -46 0
-111 -46 0
-117 -46 0
-56 -47 0
-69 -47 0
-86 -47 0
-98 -47 0
-110 -47 0
-117 -47 0
-61 -48 0
-62 -48 0
-63 -48 0
-64 -48 0
-115 -48 0
-116 -48 0
-117 -48 0
-118 -48 0
-119 -48 0
-60 -49 0
-65 -49 0
-88 -49 0
-96 -49 0
-114 -49 0
-117 -49 0
-55 -50 0
-59 -50 0
-66 -50 0
-70 -50 0
-113 -50 0
-117 -50 0
-55 -51 0
-59 -51 0
-66 -51 0
-70 -51 0
-79 -51 0
-83 -51 0
-87 -51 0
-91 -51 0
-95 -51 0
-104 -51 0
-108 -51 0
-112 -51 0
-116 -51 0
-120 -51 0
-60 -52 0
-65 -52 0
-84 -52 0
-87 -52 0
-90 -52 0
-109 -52 0
-112 -52 0
-115 -52 0
-61 -53 0
-62 -53 0
-63 -53 0
-64 -53 0
-85 -53 0
-86 -53 0
-87 -53 0
-88 -53 0
-89 -53 0
-110 -53 0
-111 -53 0
-112 -53 0
-113 -53 0
-114 -53 0
-56 -54 0
-69 -54 0
-80 -54 0
-87 -54 0
-94 -54 0
-105 -54 0
-112 -54 0
-119 -54 0
-57 -55 0
-68 -55 0
-74 -55 0
-75 -55 0
-81 -55 0
-87 -55 0
-93 -55 0
-99 -55 0
-100 -55 0
-106 -55 0
-112 -55 0
-118 -55 0
-124 -55 0
-71 -56 0
-78 -56 0
-87 -56 0
-96 -56 0
-103 -56 0
-112 -56 0
-121 -56 0
-59 -57 0
-66 -57 0
-70 -57 0
-79 -57 0
-83 -57 0
-87 -57 0
-91 -57 0
-95 -57 0
-104 -57 0
-108 -57 0
-112 -57 0
-116 -57 0
-120 -57 0
-61 -58 0
-62 -58 0
-63 -58 0
-64 -58 0
-85 -58 0
-86 -58 0
-87 -58 0
-88 -58 0
-89 -58 0
-110 -58 0
-111 -58 0
-112 -58 0
-113 -58 0
-114 -58 0
-68 -59 0
-74 -59 0
-75 -59 0
-81 -59 0
-87 -59 0
-93 -59 0
-99 -59 0
-100 -59 0
-106 -59 0
-112 -59 0
-118 -59 0
-124 -59 0
-73 -60 0
-76 -60 0
-87 -60 0
-98 -60 0
-101 -60 0
-112 -60 0
-123 -60 0
-67 -61 0
-72 -61 0
-77 -61 0
-82 -61 0
-87 -61 0
-92 -61 0
-97 -61 0
-102 -61 0
-107 -61 0
-112 -61 0
-117 -61 0
-122 -61 0
-67 -62 0
-72 -62 0
-77 -62 0
-82 -62 0
-87 -62 0
-92 -62 0
-97 -62 0
-102 -62 0
-107 -62 0
-112 -62 0
-117 -62 0
-122 -62 0
-67 -63 0
-72 -63 0
-77 -63 0
-82 -63 0
-87 -63 0
-92 -63 0
-97 -63 0
-102 -63 0
-107 -63 0
-112 -63 0
-117 -63 0
-122 -63 0
-67 -64 0
-72 -64 0
-77 -64 0
-82 -64 0
-87 -64 0
-92 -64 0
-97 -64 0
-102 -64 0
-107 -64 0
-112 -64 0
-117 -64 0
-122 -64 0
-73 -65 0
-76 -65 0
-87 -65 0
-98 -65 0
-101 -65 0
-112 -65 0
-123 -65 0
-68 -66 0
-74 -66 0
-75 -66 0
-81 -66 0
-87 -66 0
-93 -66 0
-99 -66 0
-100 -66 0
-106 -66 0
-112 -66 0
-118 -66 0
-124 -66 0
-85 -67 0
-86 -67 0
-87 -67 0
-88 -67 0
-89 -67 0
-110 -67 0
-111 -67 0
-112 -67 0
-113 -67 0
-114 -67 0
-70 -68 0
-79 -68 0
-83 -68 0
-87 -68 0
-91 -68 0
-95 -68 0
-104 -68 0
-108 -68 0
-112 -68 0
-116 -68 0
-120 -68 0
-71 -69 0
-78 -69 0
-87 -69 0
-96 -69 0
-103 -69 0
-112 -69 0
-121 -69 0
-74 -70 0
-75 -70 0
-81 -70 0
-87 -70 0
-93 -70 0
-99 -70 0
-100 -70 0
-106 -70 0
-112 -70 0
-118 -70 0
-124 -70 0
-80 -71 0
-87 -71 0
-94 -71 0
-105 -71 0
-112 -71 0
-119 -71 0
-85 -72 0
-86 -72 0
-87 -72 0
-88 -72 0
-89 -72 0
-110 -72 0
-111 -72 0
-112 -72 0
-113 -72 0
-114 -72 0
-84 -73 0
-87 -73 0
-90 -73 0
-109 -73 0
-112 -73 0
-115 -73 0
-79 -74 0
-83 -74 0
-87 -74 0
-91 -74 0
-95 -74 0
-104 -74 0
-108 -74 0
-112 -74 0
-116 -74 0
-120 -74 0
-113 -75 0
-117 -75 0
-88 -76 0
-96 -76 0
-114 -76 0
-117 -76 0
-115 -77 0
-116 -77 0
-117 -77 0
-118 -77 0
-119 -77 0
-86 -78 0
-98 -78 0
-110 -78 0
-117 -78 0
-111 -79 0
-117 -79 0
-84 -80 0
-92 -80 0
-113 -80 0
-122 -80 0
-88 -81 0
-92 -81 0
-114 -81 0
-122 -81 0
-90 -82 0
-91 -82 0
-92 -82 0
-93 -82 0
-94 -82 0
-120 -82 0
-121 -82 0
-122 -82 0
-123 -82 0
-124 -82 0
-86 -83 0
-92 -83 0
-110 -83 0
-122 -83 0
-92 -84 0
-111 -84 0
-122 -84 0
-103 -85 0
-108 -85 0
-113 -85 0
-118 -85 0
-123 -85 0
-88 -86 0
-93 -86 0
-98 -86 0
-104 -86 0
-109 -86 0
-114 -86 0
-119 -86 0
-124 -86 0
-91 -88 0
-96 -88 0
-100 -88 0
-105 -88 0
-110 -88 0
-115 -88 0
-120 -88 0
-101 -89 0
-106 -89 0
-111 -89 0
-116 -89 0
-121 -89 0
-94 -90 0
-102 -90 0
-113 -90 0
-102 -91 0
-114 -91 0
-100 -92 0
-101 -92 0
-102 -92 0
-103 -92 0
-104 -92 0
-102 -93 0
-110 -93 0
-102 -94 0
-111 -94 0
-107 -95 0
-113 -95 0
-107 -96 0
-114 -96 0
-105 -97 0
-106 -97 0
-107 -97 0
-108 -97 0
-109 -97 0
-107 -98 0
-110 -98 0
-107 -99 0
-111 -99 0
-114 -100 0
-122 -100 0
-122 -101 0
-120 -102 0
-121 -102 0
-122 -102 0
-123 -102 0
-124 -102 0
-122 -103 0
-110 -104 0
-122 -104 0
-114 -105 0
-118 -106 0
-116 -108 0
-110 -109 0
-114 -110 0
-119 -110 0
-124 -110 0
-115 -114 0
-120 -114 0
3 23 61 0
3 23 62 0
3 23 63 0
3 23 64 0
3 41 45 0
3 41 80 0
3 43 61 0
3 43 62 0
3 43 63 0
3 43 64 0
3 45 84 0
3 61 82 0
3 61 102 0
3 62 82 0
3 62 102 0
3 63 82 0
3 63 102 0
3 64 82 0
3 64 102 0
3 80 84 0
7 19 55 0
7 19 59 0
7 19 66 0
7 19 70 0
7 55 106 0
7 59 106 0
7 66 106 0
7 70 106 0
8 48 61 0
8 48 62 0
8 48 63 0
8 48 64 0
8 61 77 0
8 62 77 0
8 63 77 0
8 64 77 0
9 17 51 0
9 17 57 0
9 17 68 0
9 17 74 0
9 51 108 0
9 57 108 0
9 68 108 0
9 74 108 0
11 15 53 0
11 15 58 0
11 15 67 0
11 15 72 0
11 29 49 0
11 29 76 0
11 39 53 0
11 39 58 0
11 39 67 0
11 39 72 0
11 49 96 0
11 53 86 0
11 53 110 0
11 58 86 0
11 58 110 0
11 67 86 0
11 67 110 0
11 72 86 0
11 72 110 0
11 76 96 0
12 40 53 0
12 40 58 0
12 40 67 0
12 40 72 0
12 53 85 0
12 58 85 0
12 67 85 0
12 72 85 0
13 51 55 0
13 51 59 0
13 51 66 0
13 51 70 0
13 52 60 0
13 52 65 0
13 53 61 0
13 53 62 0
13 53 63 0
13 53 64 0
13 54 56 0
13 54 69 0
13 55 57 0
13 55 68 0
13 55 74 0
13 56 71 0
13 57 59 0
13 57 66 0
13 57 70 0
13 58 61 0
13 58 62 0
13 58 63 0
13 58 64 0
13 59 68 0
13 59 74 0
13 60 73 0
13 61 67 0
13 61 72 0
13 62 67 0
13 62 72 0
13 63 67 0
13 63 72 0
13 64 67 0
13 64 72 0
13 65 73 0
13 66 68 0
13 66 74 0
13 68 70 0
13 69 71 0
13 70 74 0
14 36 53 0
14 36 58 0
14 36 67 0
14 36 72 0
14 53 89 0
14 58 89 0
14 67 89 0
14 72 89 0
15 27 47 0
15 27 78 0
15 37 53 0
15 37 58 0
15 37 67 0
15 37 72 0
15 47 98 0
15 53 88 0
15 53 114 0
15 58 88 0
15 58 114 0
15 67 88 0
15 67 114 0
15 72 88 0
15 72 114 0
15 78 98 0
17 51 116 0
17 57 116 0
17 68 116 0
17 74 116 0
18 28 61 0
18 28 62 0
18 28 63 0
18 28 64 0
18 61 97 0
18 62 97 0
18 63 97 0
18 64 97 0
19 55 118 0
19 59 118 0
19 66 118 0
19 70 118 0
23 31 35 0
23 31 90 0
23 33 61 0
23 33 62 0
23 33 63 0
23 33 64 0
23 35 94 0
23 61 92 0
23 61 122 0
23 62 92 0
23 62 122 0
23 63 92 0
23 63 122 0
23 64 92 0
23 64 122 0
23 90 94 0
27 39 47 0
27 39 78 0
27 47 86 0
27 47 110 0
27 78 86 0
27 78 110 0
28 61 107 0
28 62 107 0
28 63 107 0
28 64 107 0
29 37 49 0
29 37 76 0
29 49 88 0
29 49 114 0
29 76 88 0
29 76 114 0
31 35 43 0
31 35 82 0
31 35 102 0
31 43 90 0
31 82 90 0
31 90 102 0
33 41 45 0
33 41 80 0
33 43 61 0
33 43 62 0
33 43 63 0
33 43 64 0
33 45 84 0
33 61 82 0
33 61 102 0
33 62 82 0
33 62 102 0
33 63 82 0
33 63 102 0
33 64 82 0
33 64 102 0
33 80 84 0
35 43 94 0
35 82 94 0
35 94 102 0
36 53 111 0
36 58 111 0
36 67 111 0
36 72 111 0
37 39 53 0
37 39 58 0
37 39 67 0
37 39 72 0
37 49 96 0
37 53 86 0
37 53 110 0
37 58 86 0
37 58 110 0
37 67 86 0
37 67 110 0
37 72 86 0
37 72 110 0
37 76 96 0
38 51 55 0
38 51 59 0
38 51 66 0
38 51 70 0
38 52 60 0
38 52 65 0
38 53 61 0
38 53 62 0
38 53 63 0
38 53 64 0
38 54 56 0
38 54 69 0
38 55 57 0
38 55 68 0
38 55 74 0
38 56 71 0
38 57 59 0
38 57 66 0
38 57 70 0
38 58 61 0
38 58 62 0
38 58 63 0
38 58 64 0
38 59 68 0
38 59 74 0
38 60 73 0
38 61 67 0
38 61 72 0
38 62 67 0
38 62 72 0
38 63 67 0
38 63 72 0
38 64 67 0
38 64 72 0
38 65 73 0
38 66 68 0
38 66 74 0
38 68 70 0
38 69 71 0
38 70 74 0
39 47 98 0
39 53 88 0
39 53 114 0
39 58 88 0
39 58 114 0
39 67 88 0
39 67 114 0
39 72 88 0
39 72 114 0
39 78 98 0
40 53 113 0
40 58 113 0
40 67 113 0
40 72 113 0
41 45 92 0
41 45 122 0
41 80 92 0
41 80 122 0
43 61 92 0
43 61 122 0
43 62 92 0
43 62 122 0
43 63 92 0
43 63 122 0
43 64 92 0
43 64 122 0
43 90 94 0
45 84 92 0
45 84 122 0
47 86 98 0
47 98 110 0
48 61 117 0
48 62 117 0
48 63 117 0
48 64 117 0
49 88 96 0
49 96 114 0
51 55 87 0
51 55 112 0
51 59 87 0
51 59 112 0
51 66 87 0
51 66 112 0
51 70 87 0
51 70 112 0
51 108 116 0
52 60 87 0
52 60 112 0
52 65 87 0
52 65 112 0
53 61 87 0
53 61 112 0
53 62 87 0
53 62 112 0
53 63 87 0
53 63 112 0
53 64 87 0
53 64 112 0
53 85 113 0
53 86 88 0
53 86 114 0
53 88 110 0
53 89 111 0
53 110 114 0
54 56 87 0
54 56 112 0
54 69 87 0
54 69 112 0
55 57 87 0
55 57 112 0
55 68 87 0
55 68 112 0
55 74 87 0
55 74 112 0
55 106 118 0
56 71 87 0
56 71 112 0
57 59 87 0
57 59 112 0
57 66 87 0
57 66 112 0
57 70 87 0
57 70 112 0
57 108 116 0
58 61 87 0
58 61 112 0
58 62 87 0
58 62 112 0
58 63 87 0
58 63 112 0
58 64 87 0
58 64 112 0
58 85 113 0
58 86 88 0
58 86 114 0
58 88 110 0
58 89 111 0
58 110 114 0
59 68 87 0
59 68 112 0
59 74 87 0
59 74 112 0
59 106 118 0
60 73 87 0
60 73 112 0
61 67 87 0
61 67 112 0
61 72 87 0
61 72 112 0
61 77 117 0
61 82 92 0
61 82 122 0
61 92 102 0
61 97 107 0
61 102 122 0
62 67 87 0
62 67 112 0
62 72 87 0
62 72 112 0
62 77 117 0
62 82 92 0
62 82 122 0
62 92 102 0
62 97 107 0
62 102 122 0
63 67 87 0
63 67 112 0
63 72 87 0
63 72 112 0
63 77 117 0
63 82 92 0
63 82 122 0
63 92 102 0
63 97 107 0
63 102 122 0
64 67 87 0
64 67 112 0
64 72 87 0
64 72 112 0
64 77 117 0
64 82 92 0
64 82 122 0
64 92 102 0
64 97 107 0
64 102 122 0
65 73 87 0
65 73 112 0
66 68 87 0
66 68 112 0
66 74 87 0
66 74 112 0
66 106 118 0
67 85 113 0
67 86 88 0
67 86 114 0
67 88 110 0
67 89 111 0
67 110 114 0
68 70 87 0
68 70 112 0
68 108 116 0
69 71 87 0
69 71 112 0
70 74 87 0
70 74 112 0
70 106 118 0
72 85 113 0
72 86 88 0
72 86 114 0
72 88 110 0
72 89 111 0
72 110 114 0
74 108 116 0
76 88 96 0
76 96 114 0
78 86 98 0
78 98 110 0
80 84 92 0
80 84 122 0
82 90 94 0
90 94 102 0
